0 0 0 0
0 1 2 0
0 2 2 0
0 3 0 0
0 4 1 10
0 5 0 7
0 6 2 7
0 7 2 16
0 8 0 12
0 9 0 19
0 10 2 21
0 11 2 9
0 12 1 6
0 13 2 18
0 14 0 16
0 15 1 25
0 16 0 34
0 17 0 22
0 18 2 15
0 19 2 24
0 20 2 34
0 21 2 35
0 22 2 24
0 23 0 43
0 24 2 39
0 25 2 32
0 26 2 41
0 27 2 47
0 28 2 47
0 29 1 52
0 30 2 47
0 31 0 57
